p tw 130 300
0 1
0 2
0 20
0 111
1 2
1 16
1 17
1 34
1 35
1 8
1 19
1 64
1 65
1 69
1 77
1 37
1 55
1 58
1 112
1 81
1 125
2 29
2 85
3 4
3 5
3 6
3 7
4 5
4 8
4 9
5 14
5 15
5 24
5 25
5 32
5 33
5 44
5 45
5 62
5 63
5 50
5 92
5 102
5 103
5 110
5 111
5 11
5 114
5 43
5 115
5 30
5 39
5 35
5 105
5 41
5 94
5 119
5 129
6 7
7 10
7 11
7 12
7 13
7 70
7 71
7 78
7 79
7 80
7 81
7 89
7 90
7 95
7 120
7 84
7 116
7 34
7 59
8 9
8 19
9 46
9 47
9 40
9 48
9 59
9 60
9 75
9 76
9 64
9 79
9 90
9 107
9 114
9 117
9 23
9 96
9 123
9 124
10 11
10 21
10 67
11 114
12 13
12 38
12 39
13 20
13 122
14 15
15 20
15 97
16 17
16 27
16 38
18 19
18 20
19 20
20 36
20 37
20 40
20 41
20 97
20 105
20 106
20 100
20 121
20 26
20 44
20 122
20 111
20 62
20 127
21 22
21 23
21 51
21 52
21 42
21 55
21 33
21 66
21 67
21 46
21 83
21 25
21 101
21 108
21 109
21 80
21 128
22 23
23 96
24 25
24 38
24 58
25 101
26 27
26 28
26 44
27 28
27 38
28 53
28 54
28 68
28 69
28 85
28 86
28 51
28 89
28 63
28 91
28 112
28 113
28 102
28 128
29 30
29 31
29 54
29 61
29 72
29 73
29 65
29 74
29 68
29 82
29 75
29 100
29 56
29 104
29 117
29 118
29 85
30 31
30 39
32 33
32 49
32 57
33 66
34 35
34 59
35 105
36 37
37 55
38 39
38 42
38 43
38 56
38 57
38 58
38 87
38 88
38 71
38 91
38 92
38 93
38 61
38 96
38 109
38 116
38 82
38 119
38 99
38 123
40 41
40 48
41 94
42 43
42 55
43 115
44 45
46 47
46 83
47 49
47 50
49 50
49 73
49 84
49 94
49 95
49 74
49 98
49 97
49 99
49 57
49 87
49 121
49 107
49 126
50 92
51 52
51 89
53 54
54 61
56 57
56 104
58 112
59 60
61 96
62 63
62 127
63 91
64 65
64 79
65 74
68 69
68 82
69 77
70 71
71 91
72 73
73 84
74 98
75 76
75 100
78 79
80 81
80 128
81 125
82 119
84 116
85 86
87 88
87 121
89 90
90 107
92 93
94 95
95 120
97 99
99 123
100 121
102 103
102 128
105 106
107 126
108 109
109 116
110 111
112 113
114 117
117 118
119 129
123 124
